Log file: C:\Users\user\robust_bilevel_network_games\true_dro\log_polska_S20_20260417_1113467.txt
Started: 2026-04-17T11:13:44.481


======================================================================
INSTANCE: polska (S=20, ε̂=0.7, ε̃=0.7)
======================================================================
============================================================
POLSKA Network Summary
============================================================
Number of nodes: 12
Number of arcs (incl. dummy): 37
Number of regular arcs: 36
Number of interdictable arcs: 28
Source node: s (Szczecin)
Sink node: t (Rzeszow)
Node-incidence matrix N dimensions: (11, 37)

Sparsity Information:
  Arc-arc adjacency: 384 / 1296 pairs (70.4% sparse)
  Node-arc incidence: 68 / 396 pairs (82.8% sparse)

First 15 arcs:
  Arc 1: ("Bialystok", "Gdansk") [Interdictable: ✓]
  Arc 2: ("Bialystok", "Warsaw") [Interdictable: ✓]
  Arc 3: ("Bialystok", "t") [Interdictable: ✗]
  Arc 4: ("Bydgoszcz", "Kolobrzeg") [Interdictable: ✓]
  Arc 5: ("Bydgoszcz", "Poznan") [Interdictable: ✓]
  Arc 6: ("Bydgoszcz", "Warsaw") [Interdictable: ✓]
  Arc 7: ("Gdansk", "Bialystok") [Interdictable: ✓]
  Arc 8: ("Gdansk", "Kolobrzeg") [Interdictable: ✓]
  Arc 9: ("Gdansk", "Warsaw") [Interdictable: ✓]
  Arc 10: ("Katowice", "Krakow") [Interdictable: ✓]
  Arc 11: ("Katowice", "Lodz") [Interdictable: ✓]
  Arc 12: ("Katowice", "Wroclaw") [Interdictable: ✓]
  Arc 13: ("Kolobrzeg", "Bydgoszcz") [Interdictable: ✓]
  Arc 14: ("Kolobrzeg", "Gdansk") [Interdictable: ✓]
  Arc 15: ("Kolobrzeg", "s") [Interdictable: ✗]
============================================================
  |A|=36, S=20, γ=3, w=3.137, λU=2.0
  ε̂=0.7, ε̃=0.7

----------------------------------------
VI-only OMP diagnostic (no Benders cuts)
Set parameter Username
Set parameter LicenseID to value 2742039
Academic license - for non-commercial use only - expires 2026-11-20
Set parameter OutputFlag to value 1
Set parameter OutputFlag to value 1
Gurobi Optimizer version 13.0.0 build v13.0.0rc1 (win64 - Windows 10.0 (19045.2))

CPU model: AMD Ryzen 9 5900X 12-Core Processor, instruction set [SSE2|AVX|AVX2]
Thread count: 12 physical cores, 24 logical processors, using up to 24 threads

Optimize a model with 2910 rows, 1697 columns and 8465 nonzeros (Min)
Model fingerprint: 0xbbcde029
Model has 1 linear objective coefficients
Variable types: 1661 continuous, 36 integer (36 binary)
Coefficient statistics:
  Matrix range     [1e-02, 1e+00]
  Objective range  [1e+00, 1e+00]
  Bounds range     [1e+00, 1e+04]
  RHS range        [1e+00, 3e+00]
Found heuristic solution: objective 26.2956887
Presolve removed 1369 rows and 392 columns
Presolve time: 0.00s
Presolved: 1541 rows, 1305 columns, 3625 nonzeros
Found heuristic solution: objective 26.2956887
Variable types: 1280 continuous, 25 integer (25 binary)

Root relaxation: objective 5.717649e-15, 297 iterations, 0.00 seconds (0.00 work units)

    Nodes    |    Current Node    |     Objective Bounds      |     Work
 Expl Unexpl |  Obj  Depth IntInf | Incumbent    BestBd   Gap | It/Node Time

*    0     0               0       0.0000000    0.00000  0.00%     -    0s

Explored 1 nodes (297 simplex iterations) in 0.00 seconds (0.01 work units)
Thread count was 24 (of 24 available processors)

Solution count 2: 1.33227e-15 26.2957 

Optimal solution found (tolerance 1.00e-04)
Best objective 0.000000000000e+00, best bound 0.000000000000e+00, gap 0.0000%

User-callback calls 36, time in user-callback 0.00 sec
  VI-only LB = 0.000000, x = [0, 0, 0, 0, 0, 0, 0, 0, 0, 0, 0, 1, 0, 0, 0, 0, 0, 0, 0, 0, 1, 0, 1, 0, 0, 0, 0, 0, 0, 0, 0, 0, 0, 0, 0, 0]
----------------------------------------

======================================================================
1. True-DRO Benders (bilinear subproblem via Gurobi NonConvex=2)
======================================================================
Set parameter Username
Set parameter LicenseID to value 2742039
Academic license - for non-commercial use only - expires 2026-11-20
Set parameter Username
Set parameter LicenseID to value 2742039
Academic license - for non-commercial use only - expires 2026-11-20
Set parameter DualReductions to value 0
Set parameter NonConvex to value 2
Set parameter LogFile to value "global_miqcp.log"
Set parameter Username
Set parameter LicenseID to value 2742039
Academic license - for non-commercial use only - expires 2026-11-20
Set parameter DualReductions to value 0
Set parameter NonConvex to value 2
Set parameter OptimalityTarget to value 1
Set parameter Username
Set parameter LicenseID to value 2742039
Academic license - for non-commercial use only - expires 2026-11-20
Set parameter Username
Set parameter LicenseID to value 2742039
Academic license - for non-commercial use only - expires 2026-11-20

=== True-DRO Benders iter 1 ===
  OMP: t₀=0.000000, UB=Inf, gap=NaN, x=[0, 0, 0, 0, 0, 0, 0, 0, 0, 0, 0, 1, 0, 0, 0, 0, 0, 0, 0, 0, 1, 0, 1, 0, 0, 0, 0, 0, 0, 0, 0, 0, 0, 0, 0, 0] (0.212s)
Set parameter TimeLimit to value 30
Set parameter MIPGap to value 0.0001
Set parameter MIPFocus to value 0
Set parameter NonConvex to value 2
Set parameter MIPGap to value 0.0001
Set parameter DualReductions to value 0
Set parameter OptimalityTarget to value 1
Set parameter MIPFocus to value 0
Set parameter TimeLimit to value 30
Gurobi Optimizer version 13.0.0 build v13.0.0rc1 (win64 - Windows 10.0 (19045.2))

CPU model: AMD Ryzen 9 5900X 12-Core Processor, instruction set [SSE2|AVX|AVX2]
Thread count: 12 physical cores, 24 logical processors, using up to 24 threads

Non-default parameters:
TimeLimit  30
OptimalityTarget  1
DualReductions  0
NonConvex  2

Optimize a model with 4218 rows, 8405 columns and 20033 nonzeros (Max)
Model fingerprint: 0x94ea3890
Model has 1496 linear objective coefficients
Model has 1440 quadratic constraints
Coefficient statistics:
  Matrix range     [2e-01, 3e+01]
  QMatrix range    [1e+00, 1e+00]
  QLMatrix range   [1e+00, 1e+00]
  Objective range  [1e+00, 2e+00]
  Bounds range     [1e+00, 1e+01]
  RHS range        [5e-02, 3e+00]

Continuous model is non-convex -- solving with NL barrier

Presolve removed 1440 rows and 1440 columns
Presolve time: 0.02s
Presolved: 2778 rows, 6965 columns, 12833 nonzeros
Presolved model has 1440 quadratic constraint(s)
Ordering time: 0.00s

NL barrier statistics:
  Hessian NZ  : 1.440e+03
  Jacobian NZ : 2.003e+04
  Factor NZ   : 1.308e+05
  Factor Ops  : 2.546e+06
  Threads     : 1

                           Residuals
Iter     Objective      Primal     Dual      Compl     Step     Time
   0  -1.09367926e+04  7.68e+04  2.94e+03  3.71e+02  0.00e+00     0s
   1  -1.13830265e+04  5.76e+04  2.59e+03  3.27e+02  2.51e-01     0s
   2  -1.21128798e+04  3.34e+04  2.18e+03  2.89e+02  4.19e-01     0s
   3  -1.24444502e+04  2.41e+04  1.22e+03  1.55e+02  2.79e-01     0s
   4  -1.25927355e+04  1.96e+04  4.97e+02  5.74e+01  1.88e-01     0s
   5  -1.23696048e+04  5.59e+03  2.58e+02  2.91e+01  7.14e-01     0s
   6  -1.18561139e+04  4.31e+03  6.59e+01  8.85e+00  2.28e-01     0s
   7  -7.72912369e+03  7.96e+02  7.04e+00  1.75e+00  8.15e-01     0s
   8  -6.12767442e+03  3.60e+02  2.60e+00  1.32e+00  5.48e-01     0s
   9  -5.66781967e+03  2.22e+02  1.57e+00  1.20e+00  3.84e-01     0s
  10  -5.39248887e+03  1.42e+02  8.30e-01  1.12e+00  3.61e-01     0s
  11  -5.18068550e+03  8.42e+01  4.15e-01  1.07e+00  4.07e-01     0s
  12  -5.03703747e+03  5.18e+01  2.26e-01  1.04e+00  3.85e-01     0s
  13  -4.91597776e+03  2.53e+01  3.32e-02  1.01e+00  5.11e-01     0s
  14  -4.81468489e+03  2.61e-06  1.07e-04  1.00e+00  1.00e+00     0s
  15  -4.80986249e+03  8.40e-09  2.60e-07  1.00e+00  1.00e+00     0s
  16  -4.80949616e+03  2.21e-09  2.61e-08  1.00e+00  1.00e+00     0s
  17  -2.68190146e+03  2.54e-05  4.44e-03  4.05e-01  6.38e-01     0s
  18  -1.39715100e+03  1.76e-04  5.78e-02  3.02e-01  7.14e-01     0s
  19  -8.17687096e+02  1.59e-04  4.96e-02  1.63e-01  8.88e-01     0s
  20  -7.49213433e+02  3.10e-04  1.24e-02  1.50e-01  1.00e+00     0s
  21  -7.49111508e+02  5.07e-06  6.51e-05  1.50e-01  1.00e+00     0s
  22  -4.67554329e+02  3.38e-04  6.87e-02  8.59e-02  3.92e-01     0s
  23  -2.58857510e+02  7.55e-03  5.18e-01  4.64e-02  4.97e-01     0s
  24  -1.37020405e+02  6.96e-03  3.65e-01  2.80e-02  6.24e-01     0s
  25  -7.20752114e+01  6.45e-03  6.30e-02  2.25e-02  1.00e+00     0s
  26  -7.38300124e+01  1.41e-04  2.68e-03  2.25e-02  1.00e+00     0s
  27  -7.37646105e+01  1.37e-06  1.84e-04  2.25e-02  1.00e+00     0s
  28  -2.05545946e+01  1.56e-02  1.54e-01  1.36e-02  6.00e-01     0s
  29   9.21619293e+00  3.72e-02  1.77e-01  7.53e-03  8.63e-01     0s
  30   1.00279785e+01  3.33e-02  6.41e-02  5.38e-03  1.08e-01     0s
  31   1.42031829e+01  2.14e-03  1.29e-02  3.56e-03  1.00e+00     0s
  32   1.50500257e+01  9.62e-05  6.34e-04  3.38e-03  1.00e+00     0s
  33   1.50022025e+01  2.12e-06  1.88e-05  3.37e-03  1.00e+00     0s
  34   2.39157847e+01  5.10e-03  1.33e-02  1.58e-03  6.17e-01     0s
  35   2.59235538e+01  4.87e-03  1.17e-02  9.16e-04  3.40e-01     0s
  36   2.65705013e+01  4.19e-03  3.32e-02  5.84e-04  2.01e-01     0s
  37   2.82902760e+01  3.17e-03  1.02e-02  4.44e-04  6.11e-01     0s
  38   2.85170092e+01  2.43e-03  1.68e-02  3.89e-04  2.31e-01     0s
  39   2.92114014e+01  5.92e-05  6.41e-04  3.47e-04  1.00e+00     0s
  40   2.92189931e+01  2.36e-07  7.14e-06  3.46e-04  1.00e+00     0s
  41   2.92185713e+01  5.17e-10  1.75e-08  3.46e-04  1.00e+00     0s
  42   2.92185616e+01  9.83e-11  1.16e-11  3.46e-04  1.00e+00     0s
  43   2.95545530e+01  9.59e-06  1.37e-02  1.43e-04  2.52e-01     0s
  44   2.96295758e+01  2.14e-05  1.26e-02  1.34e-04  7.20e-02     0s
  45   3.03060799e+01  8.54e-05  4.01e-03  7.17e-05  6.97e-01     0s
  46   3.06181308e+01  5.18e-05  4.47e-03  2.78e-05  1.00e+00     0s
  47   3.06185009e+01  3.13e-07  1.05e-04  1.43e-05  1.00e+00     0s
  48   3.06185135e+01  6.01e-07  4.95e-03  1.43e-05  2.39e-01     0s
  49   3.06185031e+01  9.47e-07  4.25e-03  1.43e-05  1.78e-01     0s
  50   3.06185413e+01  1.64e-07  3.61e-04  1.43e-05  1.00e+00     0s
  51   3.06185464e+01  1.97e-07  1.49e-03  1.43e-05  5.00e-01     0s
  52   3.06185478e+01  2.50e-07  4.79e-03  1.43e-05  2.22e-01     0s
  53   3.06185435e+01  2.44e-07  6.02e-03  1.43e-05  2.50e-01     0s
  54   3.06185557e+01  9.30e-09  2.46e-07  1.43e-05  1.00e+00     0s
  55   3.06697417e+01  3.95e-06  2.75e-04  3.05e-06  7.59e-01     0s
  56   3.06862640e+01  2.64e-07  8.94e-07  1.65e-07  1.00e+00     0s
  57   3.06862687e+01  4.68e-10  4.42e-09  1.65e-07  1.00e+00     0s
  58   3.06870575e+01  8.32e-10  6.20e-09  1.00e-09  1.00e+00     0s

NL barrier solved model in 58 iterations and 0.30 seconds (0.36 work units)
First-order optimal solution
Solution objective 3.068705745082e+01

User-callback calls 149, time in user-callback 0.00 sec
  Sub: Z₀=30.687057 [LOCAL], α=[0.000,0.000,0.000,0.000,0.000,0.000,0.005,0.000,0.000,0.000,0.000,0.000,0.000,0.000,0.000,0.000,0.000,0.000,0.000,0.000,0.000,0.000,3.132,0.000,0.000,0.000,0.000,0.000,0.000,0.000,0.000,0.000,0.000,0.000,0.000,0.000]
  Iter 1: LB=0.000000  UB=Inf  gap=NaN
  Cut: intercept=-860.851051, π_x_range=[-420.7416, 298.2097]
  [ρ-diag] φ̂U=1.00, φ̃U=2.00, λU=2.00
    π_L range=[-138.1882, 90.1642], |π_L|_∞=138.1882
    π_F range=[-269.3534, 191.8250], |π_F|_∞=269.3534
    π_ψ range=[-13.3333, 17.7481], |π_ψ|_∞=17.7481
    ρ̂1: [0.0000, 8.7928], ρ̂3: [0.0000, 5.0000]
    ρ̃1: [0.0000, 6.8624], ρ̃3: [0.0000, 4.9792]
    ρ⁰1: [0.0000, 6.6667], ρ⁰3: [0.0000, 8.8741]
  [φ-diag] φ̂ actual: [-0.0000, 1.0000], φ̂U=1.00
  [φ-diag] φ̃ actual: [-0.0000, 2.0000], φ̃U=2.00
  Mini-Benders[1] (mw): LB=0.000000, Z₀(α*)=33.780977, intercept=44.578189
  Mini-Benders[2] (mw): LB=-0.000000, Z₀(α*)=3.123097, intercept=26.196273
  Mini-Benders[3] (mw): LB=1.509223, Z₀(α*)=6.211443, intercept=28.202612
  Mini-Benders[4] (mw): LB=2.595407, Z₀(α*)=8.873669, intercept=29.804745
  Mini-Benders[5] (mw): LB=3.123096, Z₀(α*)=3.123097, intercept=26.196273
Set parameter NonConvex to value 2
Set parameter DualReductions to value 0
Set parameter LogFile to value "global_miqcp.log"
Gurobi Optimizer version 13.0.0 build v13.0.0rc1 (win64 - Windows 10.0 (19045.2))

CPU model: AMD Ryzen 9 5900X 12-Core Processor, instruction set [SSE2|AVX|AVX2]
Thread count: 12 physical cores, 24 logical processors, using up to 24 threads

Non-default parameters:
DualReductions  0
NonConvex  2

Optimize a model with 4218 rows, 8405 columns and 20033 nonzeros (Max)
Model fingerprint: 0xaf362266
Model has 1496 linear objective coefficients
Model has 1440 quadratic constraints
Coefficient statistics:
  Matrix range     [2e-01, 3e+01]
  QMatrix range    [1e+00, 1e+00]
  QLMatrix range   [1e+00, 1e+00]
  Objective range  [1e+00, 2e+00]
  Bounds range     [5e-02, 3e+00]
  RHS range        [5e-02, 3e+00]
Presolve removed 102 rows and 1048 columns
Presolve time: 0.00s
Presolved: 4548 rows, 7357 columns, 17089 nonzeros
Ordering time: 0.00s

Barrier statistics:
 Free vars  : 200
 AA' NZ     : 1.419e+04
 Factor NZ  : 9.141e+04 (roughly 6 MB of memory)
 Factor Ops : 3.535e+06 (less than 1 second per iteration)
 Threads    : 12

                  Objective                Residual
Iter       Primal          Dual         Primal    Dual     Compl     Time
   0  -3.79501427e+04 -0.00000000e+00  6.24e+03 1.00e+00  1.07e+02     0s
   1  -4.00308779e+04  6.53881177e+02  2.75e+03 5.40e+00  6.17e+01     0s
   2  -3.76491453e+04  7.86638632e+02  6.25e+02 1.89e+00  2.17e+01     0s
   3  -2.73466552e+04  5.87347599e+02  6.69e+01 6.74e-01  7.59e+00     0s
   4  -1.12762831e+04  4.33041397e+02  3.49e+00 1.97e-01  2.14e+00     0s
   5  -3.27754846e+03  2.64463398e+02  6.94e-01 2.44e-02  4.26e-01     0s
   6  -7.74846152e+02  1.25372722e+02  1.64e-01 2.94e-03  9.50e-02     0s
   7  -2.36238664e+02  3.97537418e+01  4.96e-02 4.09e-04  2.72e-02     0s
   8  -3.18273788e+01  1.03297273e+01  6.72e-03 2.50e-05  3.92e-03     0s
   9  -2.54497190e+00  4.02056026e+00  9.73e-04 6.63e-07  6.05e-04     0s
  10   3.10906529e+00  3.14141646e+00  2.47e-06 1.69e-09  2.87e-06     0s
  11   3.13693653e+00  3.13700629e+00  2.80e-07 8.18e-12  5.50e-09     0s
  12   3.13699992e+00  3.13700001e+00  7.47e-10 1.20e-14  6.92e-12     0s
  13   3.13700000e+00  3.13700000e+00  1.18e-11 1.07e-14  1.02e-13     0s

Barrier solved model in 13 iterations and 0.03 seconds (0.03 work units)
Optimal objective 3.13700000e+00


User-callback calls 53, time in user-callback 0.00 sec
  α-step: Z₀=3.137000, α=[0.000,0.000,0.000,0.000,0.000,1.080,0.000,0.000,0.000,0.000,0.000,0.000,0.000,1.037,0.000,0.000,0.000,0.000,0.000,0.000,0.000,0.000,1.021,0.000,0.000,0.000,0.000,0.000,0.000,0.000,0.000,0.000,0.000,0.000,0.000,0.000]
  Alt-Benders[1] (mw): LB=3.137000, Z₀(α*)=3.137000, intercept=39.068339
  Alt-Benders[2] (mw): LB=3.136999, Z₀(α*)=3.137000, intercept=39.068339
  Alt-Benders[3] (mw): LB=3.136999, Z₀(α*)=3.137000, intercept=39.068339
  Alt-Benders[4]: LB stagnated, break
  OMP re-solve: 0.000s

=== True-DRO Benders iter 2 ===
  OMP: t₀=3.136999, UB=Inf, gap=NaN, x=[0, 0, 0, 0, 0, 1, 0, 0, 0, 0, 0, 0, 0, 1, 0, 0, 0, 0, 0, 0, 0, 0, 1, 0, 0, 0, 0, 0, 0, 0, 0, 0, 0, 0, 0, 0] (0.000s)
Set parameter TimeLimit to value 30
Set parameter MIPGap to value 0.0001
Set parameter MIPFocus to value 0
Gurobi Optimizer version 13.0.0 build v13.0.0rc1 (win64 - Windows 10.0 (19045.2))

CPU model: AMD Ryzen 9 5900X 12-Core Processor, instruction set [SSE2|AVX|AVX2]
Thread count: 12 physical cores, 24 logical processors, using up to 24 threads

Non-default parameters:
TimeLimit  30
OptimalityTarget  1
DualReductions  0
NonConvex  2

Optimize a model with 4218 rows, 8405 columns and 20033 nonzeros (Max)
Model fingerprint: 0x64c5ff34
Model has 1496 linear objective coefficients
Model has 1440 quadratic constraints
Variable types: 8405 continuous, 0 integer (0 binary)
Coefficient statistics:
  Matrix range     [2e-01, 3e+01]
  QMatrix range    [1e+00, 1e+00]
  QLMatrix range   [1e+00, 1e+00]
  Objective range  [1e+00, 2e+00]
  Bounds range     [1e+00, 1e+01]
  RHS range        [5e-02, 3e+00]
Presolve removed 1440 rows and 1440 columns
Presolve time: 0.01s
Presolved: 2778 rows, 6965 columns, 12833 nonzeros
Presolved model has 1440 quadratic constraint(s)

Solving NLP to local optimality

Ordering time: 0.01s

NL barrier statistics:
  Hessian NZ  : 1.440e+03
  Jacobian NZ : 2.003e+04
  Factor NZ   : 1.308e+05
  Factor Ops  : 2.546e+06
  Threads     : 1

                           Residuals
Iter     Objective      Primal     Dual      Compl     Step     Time
   0  -1.09507749e+04  7.68e+04  2.94e+03  3.71e+02  0.00e+00     0s
   1  -1.13925349e+04  5.76e+04  2.59e+03  3.27e+02  2.51e-01     0s
   2  -1.21150882e+04  3.34e+04  2.18e+03  2.89e+02  4.19e-01     0s
   3  -1.24429197e+04  2.41e+04  1.22e+03  1.55e+02  2.79e-01     0s
   4  -1.25889392e+04  1.96e+04  4.97e+02  5.75e+01  1.88e-01     0s
   5  -1.23572688e+04  5.59e+03  2.59e+02  2.91e+01  7.14e-01     0s
   6  -1.18433610e+04  4.31e+03  6.58e+01  8.85e+00  2.29e-01     0s
   7  -7.68601314e+03  7.46e+02  6.98e+00  1.72e+00  8.27e-01     0s
   8  -6.11018286e+03  3.40e+02  2.69e+00  1.32e+00  5.44e-01     0s
   9  -5.68390392e+03  2.21e+02  1.67e+00  1.20e+00  3.52e-01     0s
  10  -5.40552132e+03  1.42e+02  9.03e-01  1.12e+00  3.55e-01     0s
  11  -5.19236621e+03  8.38e+01  5.49e-01  1.07e+00  4.11e-01     0s
  12  -5.01046128e+03  4.61e+01  3.54e-01  1.04e+00  4.50e-01     0s
  13  -4.92761659e+03  2.72e+01  3.57e-02  1.02e+00  4.09e-01     0s
  14  -4.81439327e+03  3.08e-06  2.07e-04  1.00e+00  1.00e+00     0s
  15  -4.81007870e+03  2.64e-08  1.02e-06  1.00e+00  1.00e+00     0s
  16  -4.80983178e+03  4.75e-09  1.83e-07  1.00e+00  1.00e+00     0s
  17  -2.71227814e+03  2.56e-05  5.48e-03  4.09e-01  6.29e-01     0s
  18  -1.42361020e+03  1.87e-04  6.00e-02  3.06e-01  7.03e-01     0s
  19  -1.02813748e+03  1.47e-04  2.38e-02  1.78e-01  5.81e-01     0s
  20  -7.48642518e+02  4.25e-04  1.31e-02  1.50e-01  9.87e-01     0s
  21  -7.50294912e+02  1.47e-05  8.38e-04  1.50e-01  1.00e+00     0s
  22  -7.50031752e+02  8.33e-09  2.57e-07  1.50e-01  1.00e+00     0s
  23  -7.49999137e+02  3.02e-10  2.42e-09  1.50e-01  1.00e+00     0s
  24  -4.98808236e+02  2.60e-04  1.16e-01  8.74e-02  3.51e-01     0s
  25  -2.53647262e+02  6.01e-03  2.12e-01  5.26e-02  5.47e-01     0s
  26  -1.20458291e+02  3.10e-03  2.63e-01  3.24e-02  7.22e-01     0s
  27  -8.11308381e+01  9.66e-04  2.64e-02  2.25e-02  1.00e+00     0s
  28  -8.27648297e+01  1.11e-05  8.03e-04  2.25e-02  1.00e+00     0s
  29  -3.34635847e+01  7.57e-04  6.12e-02  1.14e-02  5.96e-01     0s
  30  -1.37015417e+01  5.53e-04  4.02e-02  5.73e-03  7.27e-01     0s
  31  -8.09744386e+00  3.89e-05  8.55e-03  3.38e-03  1.00e+00     0s
  32  -8.04146141e+00  4.23e-05  6.73e-04  3.38e-03  1.00e+00     0s
  33  -8.04300343e+00  2.08e-08  1.30e-06  3.37e-03  1.00e+00     0s
  34  -4.01304201e-01  7.99e-05  1.27e-02  7.65e-04  7.41e-01     0s
  35   1.90117053e+00  1.33e-05  1.77e-03  3.54e-04  9.42e-01     0s
  36   2.02440946e+00  8.78e-06  4.77e-04  3.46e-04  1.00e+00     0s
  37   2.02464583e+00  1.12e-07  6.49e-06  3.46e-04  1.00e+00     0s
  38   2.86974364e+00  9.28e-06  9.20e-04  7.03e-05  7.88e-01     0s
  39   3.08854404e+00  1.12e-06  2.56e-04  1.45e-05  9.86e-01     0s
  40   3.09136852e+00  4.91e-07  1.25e-05  1.43e-05  1.00e+00     0s
  41   3.09136902e+00  8.95e-10  1.66e-08  1.43e-05  1.00e+00     0s
  42   3.13538709e+00  2.62e-08  5.12e-06  3.25e-07  9.76e-01     0s
  43   3.13647354e+00  8.71e-10  4.76e-09  1.65e-07  1.00e+00     0s
  44   3.13699681e+00  4.70e-12  8.99e-10  1.00e-09  1.00e+00     0s

NL barrier solved model in 44 iterations and 0.21 seconds (0.27 work units)
First-order optimal solution
Solution objective 3.136996810418e+00

User-callback calls 111, time in user-callback 0.00 sec
  Sub: Z₀=3.136997 [LOCAL], α=[0.000,0.000,0.000,0.000,0.000,1.037,0.000,0.000,0.000,0.000,0.000,0.000,0.000,0.895,0.000,0.000,0.000,0.000,0.000,0.000,0.000,0.000,1.205,0.000,0.000,0.000,0.000,0.000,0.000,0.000,0.000,0.000,0.000,0.000,0.000,0.000]
  Iter 2: LB=3.136999  UB=Inf  gap=NaN
  Cut: intercept=-913.388376, π_x_range=[-416.4526, 306.2770]
  [ρ-diag] φ̂U=1.00, φ̃U=2.00, λU=2.00
    π_L range=[-134.3499, 96.2770], |π_L|_∞=134.3499
    π_F range=[-268.7694, 193.9378], |π_F|_∞=268.7694
    π_ψ range=[-13.3333, 18.2131], |π_ψ|_∞=18.2131
    ρ̂1: [0.0004, 6.8234], ρ̂3: [0.0000, 4.9785]
    ρ̃1: [0.0000, 6.8274], ρ̃3: [0.0000, 4.9781]
    ρ⁰1: [0.0000, 6.6667], ρ⁰3: [0.0000, 9.1065]
  [φ-diag] φ̂ actual: [-0.0000, 1.0000], φ̂U=1.00
  [φ-diag] φ̃ actual: [-0.0000, 0.0000], φ̃U=2.00
  Mini-Benders[1] (mw): LB=3.136999, Z₀(α*)=3.137000, intercept=39.114335
  Mini-Benders[2] (mw): LB=3.137000, Z₀(α*)=3.137000, intercept=39.114335
  Mini-Benders[3] (mw): LB=3.137000, Z₀(α*)=3.137000, intercept=39.114335
  Mini-Benders[4] (mw): LB=3.137000, Z₀(α*)=3.137000, intercept=39.114335
  Mini-Benders[5]: LB stagnated, break
Gurobi Optimizer version 13.0.0 build v13.0.0rc1 (win64 - Windows 10.0 (19045.2))

CPU model: AMD Ryzen 9 5900X 12-Core Processor, instruction set [SSE2|AVX|AVX2]
Thread count: 12 physical cores, 24 logical processors, using up to 24 threads

Non-default parameters:
DualReductions  0
NonConvex  2

Optimize a model with 4218 rows, 8405 columns and 20033 nonzeros (Max)
Model fingerprint: 0xdfcf942d
Model has 1496 linear objective coefficients
Model has 1440 quadratic constraints
Coefficient statistics:
  Matrix range     [2e-01, 3e+01]
  QMatrix range    [1e+00, 1e+00]
  QLMatrix range   [1e+00, 1e+00]
  Objective range  [1e+00, 2e+00]
  Bounds range     [5e-02, 3e+00]
  RHS range        [5e-02, 3e+00]
Presolve removed 102 rows and 1048 columns
Presolve time: 0.00s
Presolved: 4548 rows, 7357 columns, 17089 nonzeros
Ordering time: 0.00s

Barrier statistics:
 Free vars  : 200
 AA' NZ     : 1.419e+04
 Factor NZ  : 9.141e+04 (roughly 6 MB of memory)
 Factor Ops : 3.535e+06 (less than 1 second per iteration)
 Threads    : 12

                  Objective                Residual
Iter       Primal          Dual         Primal    Dual     Compl     Time
   0  -3.84363694e+04 -0.00000000e+00  6.31e+03 1.00e+00  1.09e+02     0s
   1  -4.05618592e+04  5.62449810e+02  2.78e+03 5.40e+00  6.24e+01     0s
   2  -3.81709560e+04  6.75739338e+02  6.33e+02 1.89e+00  2.19e+01     0s
   3  -2.77541024e+04  5.02350890e+02  6.77e+01 6.74e-01  7.68e+00     0s
   4  -1.14748657e+04  3.62036812e+02  3.53e+00 1.97e-01  2.16e+00     0s
   5  -2.72154497e+03  2.20972935e+02  4.76e-01 2.44e-02  3.71e-01     0s
   6  -7.64940539e+02  9.63033758e+01  1.30e-01 3.33e-03  9.31e-02     0s
   7  -1.94540240e+02  4.94527344e+01  3.18e-02 1.36e-03  2.90e-02     0s
   8  -3.37156889e+01  1.10524175e+01  5.19e-03 9.51e-05  4.63e-03     0s
   9  -4.83306138e+00  4.30239855e+00  1.07e-03 7.65e-06  8.73e-04     0s
  10   2.21489470e+00  3.25563617e+00  1.15e-04 4.98e-07  9.73e-05     0s
  11   3.11372805e+00  3.14002494e+00  1.51e-06 5.27e-09  2.36e-06     0s
  12   3.13697281e+00  3.13700671e+00  5.63e-08 1.58e-11  3.04e-09     0s
  13   3.13700000e+00  3.13700000e+00  2.04e-12 7.11e-15  3.66e-15     0s

Barrier solved model in 13 iterations and 0.04 seconds (0.03 work units)
Optimal objective 3.13700000e+00


User-callback calls 57, time in user-callback 0.00 sec
  α-step: Z₀=3.137000, α=[0.000,0.000,0.000,0.000,0.000,1.037,0.000,0.000,0.000,0.000,0.000,0.000,0.000,0.911,0.000,0.000,0.000,0.000,0.000,0.000,0.000,0.000,1.189,0.000,0.000,0.000,0.000,0.000,0.000,0.000,0.000,0.000,0.000,0.000,0.000,0.000]
  Alt-Benders[1] (mw): LB=3.137000, Z₀(α*)=3.137000, intercept=39.110338
  Alt-Benders[2] (mw): LB=3.137000, Z₀(α*)=3.137000, intercept=39.110338
  Alt-Benders[3] (mw): LB=3.137000, Z₀(α*)=3.137000, intercept=39.110338
  Alt-Benders[4]: LB stagnated, break
  OMP re-solve: 0.000s

=== True-DRO Benders iter 3 ===
  OMP: t₀=3.137000, UB=Inf, gap=NaN, x=[0, 0, 0, 0, 0, 1, 0, 0, 0, 0, 0, 0, 0, 1, 0, 0, 0, 0, 0, 0, 0, 0, 1, 0, 0, 0, 0, 0, 0, 0, 0, 0, 0, 0, 0, 0] (0.000s)
Set parameter TimeLimit to value 30
Set parameter MIPGap to value 0.0001
Set parameter MIPFocus to value 0
Gurobi Optimizer version 13.0.0 build v13.0.0rc1 (win64 - Windows 10.0 (19045.2))

CPU model: AMD Ryzen 9 5900X 12-Core Processor, instruction set [SSE2|AVX|AVX2]
Thread count: 12 physical cores, 24 logical processors, using up to 24 threads

Non-default parameters:
TimeLimit  30
DualReductions  0
NonConvex  2

Optimize a model with 4218 rows, 8405 columns and 20033 nonzeros (Max)
Model fingerprint: 0x8b4be619
Model has 1496 linear objective coefficients
Model has 1440 quadratic constraints
Coefficient statistics:
  Matrix range     [2e-01, 3e+01]
  QMatrix range    [1e+00, 1e+00]
  QLMatrix range   [1e+00, 1e+00]
  Objective range  [1e+00, 2e+00]
  Bounds range     [1e+00, 3e+00]
  RHS range        [5e-02, 3e+00]

Continuous model is non-convex -- solving as a MIP

Presolve time: 0.01s
Presolved: 9978 rows, 8406 columns, 31553 nonzeros
Presolved model has 1440 bilinear constraint(s)
Variable types: 8406 continuous, 0 integer (0 binary)
Found heuristic solution: objective 3.1369970

Root relaxation: objective 9.411000e+00, 4360 iterations, 0.11 seconds (0.24 work units)

    Nodes    |    Current Node    |     Objective Bounds      |     Work
 Expl Unexpl |  Obj  Depth IntInf | Incumbent    BestBd   Gap | It/Node Time

     0     0    9.41100    0  130    3.13700    9.41100   200%     -    0s
     0     0          -    0         3.13700    3.13700  0.00%     -    0s

Cutting planes:
  RLT: 46

Explored 1 nodes (4380 simplex iterations) in 0.30 seconds (0.42 work units)
Thread count was 24 (of 24 available processors)

Solution count 1: 3.137 

Optimal solution found (tolerance 1.00e-04)
Best objective 3.136997003706e+00, best bound 3.137000000000e+00, gap 0.0001%

User-callback calls 80, time in user-callback 0.00 sec
  Sub: Z₀=3.136997, α=[0.000,0.000,0.000,0.000,0.000,1.048,0.000,0.000,0.000,0.000,0.000,0.000,0.000,0.903,0.000,0.000,0.000,0.000,0.000,0.000,0.000,0.000,1.186,0.000,0.000,0.000,0.000,0.000,0.000,0.000,0.000,0.000,0.000,0.000,0.000,0.000]
  Iter 3: LB=3.137000  UB=3.136997  gap=9.87e-07
True-DRO Benders converged at iter 3 (gap=9.87e-07)
  Wall time: 3.89 sec
  OMP  time: mean=0.075s, median=0.090s, max=0.212s
  Sub  time (exact): mean=0.315s, median=0.315s, q90=0.315s, max=0.315s (n=1/3)

----------------------------------------
True-DRO: status=Optimal, Z₀=3.136997, iters=3, time=3.89s
  LB=3.137000, UB=3.136997, gap=9.87e-07
  x* = [0, 0, 0, 0, 0, 1, 0, 0, 0, 0, 0, 0, 0, 1, 0, 0, 0, 0, 0, 0, 0, 0, 1, 0, 0, 0, 0, 0, 0, 0, 0, 0, 0, 0, 0, 0]
  α* = [0.000, 0.000, 0.000, 0.000, 0.000, 1.048, 0.000, 0.000, 0.000, 0.000, 0.000, 0.000, 0.000, 0.903, 0.000, 0.000, 0.000, 0.000, 0.000, 0.000, 0.000, 0.000, 1.186, 0.000, 0.000, 0.000, 0.000, 0.000, 0.000, 0.000, 0.000, 0.000, 0.000, 0.000, 0.000, 0.000]
  Profile saved → C:\Users\user\robust_bilevel_network_games\true_dro\profiles.jls (21 entries)
============================================================
Primal Recovery: x* → α* → (h*, λ*, ψ⁰*)
============================================================
  x* = [0, 0, 0, 0, 0, 1, 0, 0, 0, 0, 0, 0, 0, 1, 0, 0, 0, 0, 0, 0, 0, 0, 1, 0, 0, 0, 0, 0, 0, 0, 0, 0, 0, 0, 0, 0]
  α* = [0.0000, 0.0000, 0.0000, 0.0000, 0.0000, 1.0480, 0.0000, 0.0000, 0.0000, 0.0000, 0.0000, 0.0000, 0.0000, 0.9026, 0.0000, 0.0000, 0.0000, 0.0000, 0.0000, 0.0000, 0.0000, 0.0000, 1.1864, 0.0000, 0.0000, 0.0000, 0.0000, 0.0000, 0.0000, 0.0000, 0.0000, 0.0000, 0.0000, 0.0000, 0.0000, 0.0000]

  Piece-F obj = 0.000000
  λ*   = -0.000000
  Σh*  = 0.000000  (budget: λw = -0.000000)

  h* (nonzero arcs):
  ψ⁰* (nonzero arcs):

  Per-scenario sink flow ỹ_ts:
    s=1: ỹ_ts=-0.000000
    s=2: ỹ_ts=-0.000000
    s=3: ỹ_ts=-0.000000
    s=4: ỹ_ts=-0.000000
    s=5: ỹ_ts=-0.000000
    s=6: ỹ_ts=-0.000000
    s=7: ỹ_ts=-0.000000
    s=8: ỹ_ts=-0.000000
    s=9: ỹ_ts=-0.000000
    s=10: ỹ_ts=-0.000000
    s=11: ỹ_ts=-0.000000
    s=12: ỹ_ts=-0.000000
    s=13: ỹ_ts=-0.000000
    s=14: ỹ_ts=-0.000000
    s=15: ỹ_ts=-0.000000
    s=16: ỹ_ts=-0.000000
    s=17: ỹ_ts=-0.000000
    s=18: ỹ_ts=-0.000000
    s=19: ỹ_ts=-0.000000
    s=20: ỹ_ts=-0.000000

  Z₀(Benders) = 3.136997
  Piece-F(recovered) = 0.000000

Finished: 2026-04-17T11:13:48.623
